40
3 0 2
3 1 2
3 2 2
4 3 2
5 1 1
5 2 2
5 4 1
6 3 2
7 0 1
7 2 2
7 4 2
7 5 2
7 6 1
8 1 2
8 5 2
8 6 1
9 1 1
9 4 2
9 6 1
9 7 2
9 8 2
10 0 2
10 3 2
10 8 2
11 1 2
11 3 1
11 8 2
11 9 2
12 0 2
12 1 1
12 2 1
12 4 1
12 5 1
12 7 2
12 8 1
12 9 1
12 11 2
13 0 2
13 1 1
13 2 1
13 3 1
13 4 1
13 6 1
13 7 1
13 8 1
13 11 2
14 0 2
14 1 1
14 3 1
14 4 1
14 6 1
14 12 1
15 2 1
15 5 2
15 7 1
15 12 1
16 1 2
16 2 2
16 3 1
16 4 2
16 5 2
16 8 1
16 10 1
16 13 1
16 15 2
17 0 1
17 1 2
17 4 1
17 7 1
17 8 2
17 12 1
17 13 1
17 15 2
18 1 1
18 9 1
18 12 2
18 13 1
18 16 2
18 17 2
19 0 1
19 3 2
19 4 2
19 5 1
19 8 1
19 9 2
19 10 1
19 11 1
19 12 2
19 13 2
19 14 1
19 15 1
19 16 1
19 18 1
20 0 2
20 1 2
20 3 2
20 4 1
20 7 1
20 8 2
20 14 2
20 15 2
20 16 1
20 18 2
21 1 1
21 2 1
21 6 2
21 7 2
21 11 1
21 13 1
21 16 1
21 18 1
21 19 1
22 1 2
22 2 2
22 3 2
22 6 2
22 7 1
22 9 2
22 10 1
22 14 2
22 16 1
22 17 1
22 18 2
23 1 1
23 3 1
23 5 2
23 6 2
23 7 1
23 9 2
23 11 1
23 12 1
23 14 1
23 19 2
23 21 2
23 22 1
24 1 2
24 2 2
24 3 1
24 4 1
24 8 2
24 13 2
24 14 2
24 19 1
24 21 2
24 22 2
24 23 1
25 0 2
25 3 2
25 4 2
25 5 1
25 6 2
25 9 2
25 10 2
25 11 2
25 12 1
25 16 1
25 18 2
25 20 1
25 22 2
25 23 1
26 1 1
26 3 2
26 8 2
26 11 2
26 12 1
26 13 2
26 15 2
26 16 2
26 17 1
26 18 1
26 19 2
26 20 2
26 21 1
26 23 1
26 24 1
26 25 2
27 4 1
27 5 2
27 6 2
27 8 1
27 9 1
27 10 2
27 12 1
27 15 1
27 16 2
27 17 2
27 18 1
27 25 2
27 26 2
28 2 2
28 3 1
28 7 1
28 9 2
28 10 2
28 11 2
28 14 2
28 19 2
28 24 2
28 26 2
29 1 2
29 2 1
29 3 2
29 4 1
29 5 1
29 7 1
29 8 1
29 10 1
29 11 2
29 15 1
29 16 2
29 19 2
29 20 2
29 21 2
29 22 1
29 24 1
29 25 1
29 26 1
30 6 1
30 10 1
30 13 2
30 16 2
30 21 2
30 23 1
30 26 2
30 27 1
30 29 1
31 0 2
31 3 1
31 4 2
31 6 2
31 9 1
31 10 1
31 11 2
31 12 1
31 15 1
31 18 2
31 19 2
31 21 2
31 22 1
31 23 2
31 24 2
31 27 2
31 28 2
31 29 2
32 0 2
32 5 2
32 6 1
32 7 1
32 8 2
32 10 2
32 12 2
32 14 1
32 15 1
32 19 1
32 20 1
32 24 2
32 28 1
32 29 1
32 31 1
33 3 2
33 5 1
33 7 1
33 8 2
33 9 1
33 10 2
33 12 2
33 15 2
33 16 1
33 17 2
33 21 2
33 23 2
33 24 1
33 25 2
33 27 2
33 28 2
33 31 1
34 1 1
34 2 1
34 3 1
34 6 1
34 9 1
34 12 2
34 14 1
34 17 2
34 18 1
34 21 2
34 25 1
34 26 1
34 27 1
34 29 2
34 30 1
34 31 1
34 32 1
34 33 2
35 2 1
35 3 2
35 4 2
35 6 1
35 8 1
35 10 2
35 13 1
35 15 1
35 17 2
35 18 1
35 20 1
35 21 2
35 22 1
35 27 2
35 30 2
35 31 1
35 32 2
35 34 1
36 0 2
36 1 1
36 3 2
36 6 2
36 10 1
36 12 2
36 13 2
36 15 2
36 18 2
36 20 2
36 21 1
36 22 1
36 25 1
36 26 1
36 29 1
36 30 1
36 32 1
36 33 1
36 35 1
37 2 1
37 3 1
37 4 2
37 6 1
37 9 2
37 10 2
37 11 2
37 13 1
37 15 1
37 16 1
37 17 1
37 19 1
37 20 2
37 22 2
37 25 1
37 26 2
37 28 2
37 30 1
37 31 1
37 32 1
37 33 2
37 34 2
38 0 1
38 6 2
38 8 1
38 12 1
38 13 1
38 17 2
38 21 2
38 22 1
38 23 2
38 24 1
38 25 2
38 26 2
38 30 2
38 31 2
38 33 1
38 35 1
39 0 2
39 1 2
39 2 2
39 5 1
39 9 2
39 13 1
39 15 2
39 17 1
39 23 2
39 24 2
39 29 2
39 31 2
39 33 1
39 34 2
39 35 1
39 36 1
39 38 1
